
(set-logic BVNIA)
(synth-fun int_bvand_4 ((s Int) (t Int)) Int
(
  (I Int) (Ic Int) (B Bool)
)
(
  (I Int  (
       Ic
       (+ I I )
       (* I I)
       (ite B I I)
    )
  )
  (Ic Int (
  s
  t
    0
1
2
3
4
5
6
7
8
9
10
11
12
13
14
15
  )
)
  (B Bool (
       (= I I)
       (>= I I)
       (not B)
     )
  )
)
)

(declare-var s Int)
(declare-var t Int)

(constraint (=> (and (<= 0 s 15) (<= 0 t 15)) (= (int_bvand_4 s t) (bv2nat (bvand ((_ int2bv 4) s) ((_ int2bv 4) t))) )))
(check-synth)
